proyfinal/src/viki/013/experimentInOfficeAgust.take6.output/f8776861-bb3f-4a5f-a046-85d99f8ffe0a.als.dat
{'cnf.clauses': '118081',
 'cnf.totvars': '69608',
 'conflict literals': '60',
 'conflicts': '19',
 'decisions': '8213',
 'memused.mb': '15.85',
 'outcome': 'UNSAT',
 'propagations': '33189',
 'restarts': '1',
 'solver.msecs': 29,
 'task.msecs': 114}
