proyfinal/src/viki/013/experimentInOfficeAgust.take6.output/f8776861-bb3f-4a5f-a046-85d99f8ffe0a.als.out
Reading from standard input... Use '--help' for help.
============================[ Problem Statistics ]=============================
|                                                                             |
|  Number of variables:         69608                                         |
|  Number of clauses:          118081                                         |
|  Parse time:                   0.02 s                                       |
|                                                                             |
============================[ Search Statistics ]==============================
| Conflicts |          ORIGINAL         |          LEARNT          | Progress |
|           |    Vars  Clauses Literals |    Limit  Clauses Lit/Cl |          |
===============================================================================
===============================================================================
restarts              : 1
conflicts             : 19             (642 /sec)
decisions             : 8213           (0.00 % random) (277335 /sec)
propagations          : 33189          (1120720 /sec)
conflict literals     : 60             (0.00 % deleted)
Memory used           : 15.85 MB
CPU time              : 0.029614 s

UNSATISFIABLE
